# Borosilicate glass initial structure (random packed)

1500 atoms
5 atom types

0.0 34.000000 xlo xhi
0.0 34.000000 ylo yhi
0.0 34.000000 zlo zhi

Masses

1 15.99900000
2 28.08500000
3 10.81000000
4 22.98976900
5 39.09830000

Atoms # charge

1 1 0.0 21.337939 21.905006 2.792495
2 1 0.0 30.855069 7.703987 28.882269
3 1 0.0 32.842122 13.114039 30.361884
4 2 0.0 6.442375 5.704674 30.767377
5 1 0.0 22.032448 17.126569 4.308215
6 3 0.0 28.674431 11.280300 23.473105
7 1 0.0 10.395809 21.218137 20.923975
8 1 0.0 3.825845 3.126600 22.768693
9 1 0.0 11.215100 7.850174 9.453024
10 1 0.0 11.505300 7.459546 2.359974
11 1 0.0 15.881869 33.194708 10.289516
12 1 0.0 22.991470 7.352908 1.485710
13 1 0.0 21.682538 3.638160 33.777743
14 3 0.0 30.513437 18.624657 5.944546
15 2 0.0 30.664289 7.548196 11.676754
16 1 0.0 3.079425 32.724938 27.106949
17 4 0.0 14.295600 10.705870 13.960317
18 4 0.0 16.337882 11.969500 10.769707
19 1 0.0 1.892933 8.674028 31.057129
20 1 0.0 13.561135 11.919422 19.383269
21 1 0.0 29.000558 5.077233 16.545204
22 1 0.0 4.378772 0.064349 18.905017
23 1 0.0 4.334162 12.455655 9.319732
24 1 0.0 29.756215 23.301649 31.592823
25 1 0.0 6.424646 2.876364 28.682467
26 2 0.0 6.470831 19.582011 22.610436
27 4 0.0 19.763966 26.429150 32.408600
28 1 0.0 13.016648 23.395730 23.573173
29 2 0.0 2.111059 14.634067 14.565583
30 1 0.0 4.063655 3.663813 5.704462
31 1 0.0 22.898054 4.733015 8.012714
32 1 0.0 11.826354 21.003332 22.561762
33 1 0.0 29.812195 11.362461 2.787948
34 1 0.0 26.865498 4.479645 22.241372
35 1 0.0 13.418310 30.025028 29.284221
36 3 0.0 10.401441 18.661417 18.190683
37 1 0.0 30.644605 7.402723 27.348186
38 2 0.0 31.301673 23.200654 28.051655
39 1 0.0 22.676115 7.853782 25.276643
40 1 0.0 25.309792 2.627359 16.432228
41 2 0.0 1.007624 11.880976 6.303318
42 1 0.0 31.107385 22.852226 22.957328
43 1 0.0 33.307638 3.246158 15.510309
44 1 0.0 26.220625 16.451814 4.231880
45 2 0.0 8.762569 10.624934 20.192227
46 4 0.0 13.079734 23.642855 2.240389
47 1 0.0 8.462032 11.751325 29.088951
48 1 0.0 18.875882 31.669637 1.765106
49 3 0.0 3.482853 14.548313 17.427623
50 1 0.0 18.375868 29.061796 30.194270
51 2 0.0 0.105660 4.161169 11.019802
52 1 0.0 28.475787 23.715696 29.997813
53 1 0.0 18.299286 2.556393 15.252966
54 4 0.0 29.656242 31.762742 21.414848
55 2 0.0 22.782425 31.624306 18.435844
56 1 0.0 29.301120 33.072310 24.418566
57 2 0.0 22.375747 10.178750 21.032475
58 1 0.0 33.804303 23.094533 12.418990
59 2 0.0 29.025713 6.419014 28.218441
60 1 0.0 5.514462 2.401946 0.613766
61 1 0.0 29.068654 21.120721 29.739995
62 1 0.0 5.117323 11.214330 4.844060
63 1 0.0 1.507491 28.496145 6.761138
64 2 0.0 12.693030 32.857349 28.378706
65 2 0.0 21.864759 7.437879 20.410752
66 1 0.0 29.895201 4.134748 29.701762
67 2 0.0 7.582032 16.094737 11.482155
68 1 0.0 19.108893 17.127278 32.622725
69 1 0.0 20.971995 9.511782 17.701420
70 1 0.0 18.801409 26.177497 30.761003
71 3 0.0 0.734660 11.889690 25.441358
72 1 0.0 22.292220 19.327735 20.486078
73 3 0.0 19.947520 29.721576 26.160966
74 3 0.0 29.096759 22.044822 23.614545
75 3 0.0 14.620521 8.916162 9.616486
76 1 0.0 26.942873 1.319014 9.344824
77 4 0.0 29.488667 33.454143 31.280285
78 3 0.0 4.158531 13.632359 32.020855
79 1 0.0 16.506474 32.594691 26.430859
80 1 0.0 26.586940 24.755448 22.506952
81 3 0.0 19.071925 27.413843 20.401984
82 1 0.0 4.469134 0.481138 2.770272
83 2 0.0 0.212955 3.867894 24.848954
84 1 0.0 11.166079 18.314116 6.044401
85 2 0.0 21.083574 10.223836 24.212866
86 1 0.0 0.844768 13.795078 15.297427
87 1 0.0 11.251832 10.894576 27.643955
88 1 0.0 11.302239 27.666395 18.184535
89 2 0.0 4.600479 3.255469 4.248978
90 1 0.0 6.141140 4.565456 24.094993
91 1 0.0 10.719480 33.293351 25.357004
92 1 0.0 4.168671 20.024328 25.868886
93 3 0.0 21.654713 2.329499 5.993549
94 1 0.0 1.293381 8.776266 17.814656
95 3 0.0 4.103558 19.061051 28.019056
96 1 0.0 14.291634 13.938662 29.904923
97 1 0.0 16.215384 7.410459 4.377515
98 1 0.0 7.400976 13.427557 19.109105
99 1 0.0 11.174605 12.631285 8.247872
100 1 0.0 20.708872 13.248215 27.777818
101 1 0.0 25.493491 6.346690 11.099463
102 2 0.0 3.016477 3.899583 20.756716
103 1 0.0 27.210781 24.695909 6.650314
104 1 0.0 29.096742 16.246137 7.715222
105 1 0.0 33.732027 5.859327 6.253668
106 2 0.0 20.376490 27.734699 12.352032
107 2 0.0 14.619930 7.040837 14.214464
108 1 0.0 10.212078 12.210848 10.864341
109 4 0.0 30.184344 30.364056 17.200110
110 1 0.0 1.316058 33.911574 18.779482
111 1 0.0 5.642914 19.056540 0.006176
112 1 0.0 31.217338 19.855100 12.611825
113 1 0.0 28.196144 23.287540 21.855646
114 3 0.0 16.537980 5.715630 25.080369
115 1 0.0 27.367549 12.617291 12.822684
116 1 0.0 4.949602 5.455806 26.449691
117 1 0.0 20.342553 7.517891 3.265718
118 1 0.0 4.076720 8.542440 3.653146
119 2 0.0 33.480020 24.655389 6.063647
120 1 0.0 0.986452 14.764331 24.565565
121 1 0.0 6.843836 17.044613 19.111185
122 3 0.0 18.350246 18.852789 18.752926
123 1 0.0 32.966556 19.780011 22.106230
124 1 0.0 22.646034 3.308432 24.999456
125 1 0.0 30.529735 7.182076 30.220184
126 2 0.0 28.286332 0.956673 13.195949
127 1 0.0 0.247448 14.673574 31.133210
128 1 0.0 1.399994 0.092177 27.588381
129 1 0.0 7.817405 11.669881 26.527879
130 3 0.0 21.425477 8.967635 14.104291
131 2 0.0 5.015998 12.723113 15.714939
132 2 0.0 22.781103 16.667870 23.553713
133 2 0.0 16.558214 31.608260 25.231730
134 3 0.0 28.485792 19.753707 28.896298
135 1 0.0 30.408851 1.759142 27.094182
136 1 0.0 30.251352 31.205262 29.854169
137 4 0.0 21.474452 3.616848 11.281179
138 1 0.0 25.857174 3.971616 13.457933
139 2 0.0 24.471916 6.710629 26.330330
140 2 0.0 20.525950 29.224634 24.298593
141 1 0.0 18.999727 25.504145 8.474392
142 4 0.0 24.157697 5.545158 12.638213
143 1 0.0 6.202293 24.465355 0.514053
144 1 0.0 5.054293 33.516482 28.596764
145 1 0.0 9.118402 31.390085 25.920359
146 1 0.0 8.295897 23.344394 16.782270
147 2 0.0 26.464782 3.472958 33.467856
148 1 0.0 31.686359 33.441890 4.181583
149 1 0.0 4.334969 3.494381 17.488971
150 4 0.0 11.135485 24.994305 20.249641
151 1 0.0 26.643320 22.275812 9.656030
152 1 0.0 18.220972 20.031038 8.086526
153 2 0.0 10.598161 6.933589 24.511824
154 1 0.0 32.503630 27.953195 17.065554
155 1 0.0 31.421458 17.856635 25.761973
156 1 0.0 28.217959 13.544699 28.540821
157 1 0.0 1.373402 25.440639 31.343523
158 1 0.0 9.263607 33.532843 16.008638
159 2 0.0 17.804940 27.013314 26.779623
160 1 0.0 15.568425 29.743044 28.045834
161 1 0.0 33.636138 7.214300 10.980213
162 2 0.0 26.966774 28.397157 11.384051
163 2 0.0 31.250826 29.802306 7.030892
164 2 0.0 19.709836 33.325678 18.284408
165 1 0.0 9.593511 20.214756 29.770793
166 4 0.0 2.220935 31.300494 10.024312
167 2 0.0 1.254417 26.639629 21.179235
168 1 0.0 20.594281 5.254549 4.028956
169 1 0.0 25.771396 9.485827 14.226739
170 1 0.0 14.556849 22.716399 5.654240
171 3 0.0 27.615422 20.702733 32.258735
172 1 0.0 7.934086 19.291730 27.114152
173 1 0.0 16.679347 4.190470 2.457533
174 2 0.0 22.570159 0.875227 22.463924
175 1 0.0 24.852953 17.544631 30.712191
176 1 0.0 6.727136 24.925316 29.659924
177 2 0.0 28.735964 0.833352 27.072618
178 1 0.0 15.897113 2.552308 19.279501
179 1 0.0 19.091022 2.746600 33.031151
180 2 0.0 15.595374 23.342298 3.310008
181 3 0.0 16.011642 18.117532 14.573809
182 3 0.0 19.683296 2.392439 26.820477
183 1 0.0 29.969756 18.292713 28.995806
184 2 0.0 21.698694 27.183030 24.884747
185 1 0.0 2.628186 9.331421 24.346364
186 1 0.0 19.883200 24.622187 30.621271
187 1 0.0 27.764831 18.514477 0.067454
188 1 0.0 11.430801 6.211862 0.347803
189 1 0.0 11.284063 13.567397 2.146951
190 2 0.0 27.545857 29.157302 12.486747
191 2 0.0 18.599948 21.921337 11.330597
192 1 0.0 0.129944 1.962951 0.347606
193 1 0.0 28.768375 6.335281 10.965034
194 1 0.0 27.288648 5.590935 25.929092
195 3 0.0 18.206408 7.664852 9.407171
196 4 0.0 13.886742 25.217077 15.989663
197 1 0.0 26.466641 26.016118 13.786848
198 2 0.0 16.404427 8.658306 2.502658
199 1 0.0 3.107389 28.284708 13.880418
200 1 0.0 17.951796 33.386313 22.339621
201 1 0.0 28.723793 0.092114 29.103270
202 1 0.0 9.342249 20.241270 28.208393
203 1 0.0 3.769227 30.821009 17.564253
204 1 0.0 25.115566 31.951252 24.866497
205 1 0.0 10.805741 24.129063 1.504043
206 2 0.0 6.386068 15.682801 22.214921
207 3 0.0 22.817489 13.509318 27.018809
208 2 0.0 19.710436 10.068918 29.095449
209 1 0.0 5.556761 28.196714 26.799441
210 2 0.0 7.076140 18.374034 23.506740
211 1 0.0 32.506770 10.985284 13.995291
212 1 0.0 15.992090 29.134061 5.959503
213 1 0.0 20.232986 12.656066 30.365802
214 1 0.0 26.945118 0.428557 21.992682
215 1 0.0 14.315524 8.030946 12.541260
216 1 0.0 26.923761 3.435793 8.221415
217 2 0.0 2.617924 26.781703 33.912430
218 1 0.0 3.738966 22.760130 17.910875
219 2 0.0 28.383346 27.412037 11.183720
220 2 0.0 6.689686 15.277487 33.517286
221 1 0.0 29.995496 31.550181 16.573821
222 1 0.0 10.637121 24.060547 12.825593
223 1 0.0 33.078611 13.306906 26.047350
224 1 0.0 25.664108 14.784800 28.600025
225 2 0.0 0.877266 29.308439 19.163159
226 1 0.0 32.777776 9.382830 12.649720
227 1 0.0 0.024985 32.704616 33.957963
228 2 0.0 5.311201 4.618998 15.881954
229 1 0.0 23.500094 1.166039 8.813591
230 1 0.0 27.991004 8.679034 10.672742
231 1 0.0 23.435793 25.541303 16.962440
232 3 0.0 0.496231 20.145030 24.291882
233 1 0.0 7.592738 31.644041 18.131683
234 2 0.0 24.455166 30.707061 14.942517
235 2 0.0 16.438734 14.152410 7.876446
236 1 0.0 28.650519 0.667523 11.141279
237 3 0.0 27.457485 2.966207 16.395598
238 1 0.0 11.682630 3.109418 10.151917
239 2 0.0 20.591772 1.167032 22.452469
240 4 0.0 31.097690 6.362080 21.705823
241 1 0.0 14.208740 31.938246 8.811173
242 1 0.0 2.444301 18.217692 30.621468
243 3 0.0 4.415122 2.250804 25.345581
244 3 0.0 10.343045 9.732258 11.027197
245 1 0.0 16.622909 17.848126 28.271455
246 2 0.0 5.182841 33.453429 17.484671
247 1 0.0 24.505255 9.422503 6.993512
248 2 0.0 13.942451 11.076889 9.148512
249 2 0.0 7.384506 7.012590 24.870967
250 1 0.0 23.311628 5.894179 17.587750
251 1 0.0 29.328816 23.319440 27.190286
252 4 0.0 10.617810 13.565603 11.155170
253 1 0.0 31.085622 5.851957 7.384901
254 1 0.0 30.228134 11.761167 17.300573
255 3 0.0 20.575549 9.693002 31.652817
256 1 0.0 12.175794 6.243500 3.690607
257 1 0.0 17.226653 15.308895 3.003635
258 1 0.0 12.927084 19.733159 28.167070
259 1 0.0 27.452931 16.830832 30.363132
260 1 0.0 1.983190 14.488900 8.372528
261 3 0.0 0.508909 18.964649 7.945346
262 1 0.0 6.512074 21.175139 7.495200
263 1 0.0 11.317848 28.212258 6.602911
264 1 0.0 4.345741 9.868791 1.190819
265 1 0.0 28.753333 9.474708 8.009333
266 1 0.0 24.039394 21.317719 21.185694
267 1 0.0 2.599011 11.463993 17.182932
268 1 0.0 7.123984 23.371444 13.961943
269 1 0.0 27.190851 29.220277 26.922661
270 1 0.0 9.138256 11.071014 11.988939
271 1 0.0 28.519763 2.807491 25.581859
272 1 0.0 21.541149 11.711135 3.783293
273 3 0.0 3.035733 15.015418 11.463704
274 1 0.0 6.102249 1.120961 13.703545
275 1 0.0 21.052935 26.281336 26.259397
276 1 0.0 9.503017 16.859486 10.445369
277 1 0.0 15.404374 10.879348 27.701996
278 1 0.0 3.548455 12.205191 3.494037
279 2 0.0 3.069059 32.870257 2.756493
280 2 0.0 19.211186 32.893909 9.058638
281 1 0.0 3.547405 33.699853 32.839496
282 2 0.0 22.904549 15.965581 7.959675
283 1 0.0 14.800456 6.440092 30.198560
284 1 0.0 5.907053 20.760469 0.865031
285 1 0.0 26.684103 3.563442 28.618765
286 1 0.0 7.373335 17.280881 30.586299
287 4 0.0 16.421122 2.801939 28.217543
288 1 0.0 18.535984 8.777526 11.778693
289 1 0.0 21.880969 16.955308 30.721083
290 1 0.0 2.510804 6.734090 2.026515
291 3 0.0 4.397530 7.913552 19.681641
292 1 0.0 12.812472 19.930744 32.143053
293 2 0.0 20.160385 23.997816 5.999001
294 1 0.0 20.120244 12.637166 23.987971
295 1 0.0 23.304467 26.695909 13.181870
296 1 0.0 7.947041 11.442254 32.658873
297 3 0.0 3.476998 14.960019 13.521730
298 1 0.0 25.591145 14.523192 13.795951
299 1 0.0 22.756856 27.653065 29.929980
300 2 0.0 5.359022 9.900871 19.196498
301 2 0.0 31.018176 4.979362 31.940286
302 1 0.0 0.811608 7.607229 1.870878
303 1 0.0 0.738400 19.912960 2.539992
304 1 0.0 27.641416 19.766373 26.076812
305 1 0.0 19.605165 12.255334 20.347316
306 2 0.0 0.949518 18.201137 11.585882
307 1 0.0 32.732826 32.530957 19.024474
308 2 0.0 19.112750 11.189501 14.142213
309 1 0.0 31.803263 14.618452 21.196055
310 1 0.0 6.330130 29.809445 20.502400
311 1 0.0 27.620909 31.160273 20.158736
312 2 0.0 25.990266 30.332594 6.238178
313 2 0.0 6.798033 32.907702 29.004763
314 1 0.0 28.668938 28.481804 25.928827
315 2 0.0 10.923952 23.270150 21.458174
316 1 0.0 11.758748 23.443730 33.680971
317 2 0.0 14.271028 11.233961 26.612345
318 1 0.0 29.221704 33.996740 7.854723
319 1 0.0 9.385874 14.408265 13.090245
320 1 0.0 24.494289 33.577602 24.599561
321 3 0.0 0.917386 32.142983 25.112421
322 1 0.0 15.521392 16.837644 20.459883
323 2 0.0 6.554758 30.775702 26.216956
324 1 0.0 10.861149 2.970934 24.218081
325 1 0.0 18.333045 27.585873 28.549614
326 3 0.0 23.104419 11.969977 28.954043
327 1 0.0 26.842326 15.242486 7.276998
328 1 0.0 11.771554 16.855551 10.607779
329 1 0.0 17.488303 29.498737 26.451977
330 2 0.0 27.685665 17.870325 23.116131
331 1 0.0 3.472506 3.091342 24.294478
332 1 0.0 7.808134 0.978069 5.724133
333 2 0.0 2.407027 13.166434 33.996815
334 2 0.0 24.153265 18.242730 29.521285
335 1 0.0 18.233365 0.330801 0.665880
336 1 0.0 12.497185 31.205807 4.342823
337 1 0.0 11.158198 13.583649 9.290270
338 1 0.0 0.505762 25.175939 5.283453
339 2 0.0 4.313827 16.172633 2.566880
340 1 0.0 16.468020 24.273729 30.099135
341 1 0.0 28.907872 0.268294 1.736122
342 2 0.0 30.583977 21.311358 14.390580
343 1 0.0 1.103585 5.767097 7.431777
344 1 0.0 6.142875 13.176947 20.947171
345 1 0.0 4.737715 25.324327 10.735181
346 2 0.0 10.583124 18.181068 15.013520
347 1 0.0 9.309547 15.889702 15.783185
348 3 0.0 6.092465 31.372677 15.238915
349 1 0.0 32.026400 12.227026 23.356595
350 3 0.0 15.241697 15.611522 2.530727
351 4 0.0 0.378189 21.507621 22.844529
352 1 0.0 8.994937 11.141948 33.627956
353 1 0.0 2.060906 13.088379 30.789615
354 1 0.0 11.164901 24.165684 26.534331
355 1 0.0 26.754769 21.202317 7.240674
356 1 0.0 30.915667 10.969545 3.940602
357 2 0.0 25.653748 7.926015 1.837137
358 1 0.0 5.170867 27.431124 25.543005
359 1 0.0 5.496297 32.548322 13.364063
360 1 0.0 20.705624 19.273069 21.731897
361 1 0.0 8.635481 5.057776 17.291163
362 1 0.0 12.375511 13.424063 11.040624
363 1 0.0 5.736142 18.050260 25.536067
364 1 0.0 31.260334 15.670487 33.146120
365 1 0.0 10.265120 6.716232 17.183277
366 4 0.0 26.577089 32.002413 18.963834
367 2 0.0 5.062634 1.178772 15.700973
368 2 0.0 1.878813 27.171947 25.167118
369 2 0.0 10.563921 14.153614 31.838896
370 1 0.0 18.765428 6.403924 27.937967
371 2 0.0 9.646113 5.469641 24.051745
372 2 0.0 2.664705 13.202048 2.148776
373 3 0.0 32.584448 14.692950 27.233292
374 1 0.0 11.202709 13.290781 33.837300
375 2 0.0 12.467101 9.378138 4.552446
376 1 0.0 19.838809 18.103980 25.993648
377 1 0.0 10.933052 7.074471 29.700183
378 1 0.0 1.855465 30.845205 31.388543
379 2 0.0 12.846794 25.854035 7.677850
380 1 0.0 5.526877 1.612511 5.292320
381 4 0.0 14.806244 21.202600 27.302227
382 4 0.0 14.098514 26.435966 22.227825
383 1 0.0 17.227526 25.994843 1.228142
384 1 0.0 19.341703 10.893739 8.971669
385 1 0.0 10.346237 30.723812 18.983602
386 2 0.0 29.477374 5.691021 30.287147
387 1 0.0 28.730368 18.910151 10.609972
388 2 0.0 20.913178 30.772860 3.880682
389 1 0.0 29.043214 9.072525 4.680593
390 2 0.0 4.664403 15.979942 11.659533
391 1 0.0 1.402402 10.287883 30.846827
392 2 0.0 30.113266 16.559111 30.558938
393 2 0.0 8.659772 11.655368 7.377522
394 1 0.0 6.027755 28.609491 8.624856
395 2 0.0 28.480136 18.288765 1.589184
396 3 0.0 13.392707 19.505955 26.314292
397 1 0.0 13.889106 3.090235 20.430026
398 1 0.0 7.422200 2.838451 21.781971
399 3 0.0 1.415194 1.525604 29.063934
400 1 0.0 28.942472 30.167973 9.277831
401 1 0.0 21.893737 5.358358 19.246961
402 1 0.0 2.921545 3.446735 32.855433
403 1 0.0 5.906276 0.846982 32.281592
404 1 0.0 25.229607 19.638143 3.667588
405 1 0.0 24.262490 19.274623 23.664449
406 1 0.0 9.729345 13.563722 5.289990
407 1 0.0 3.275577 5.865483 9.639723
408 1 0.0 29.681010 25.550950 18.667860
409 1 0.0 10.704766 31.097244 33.450060
410 1 0.0 9.176413 1.187899 29.560929
411 2 0.0 31.480170 4.572529 29.407179
412 1 0.0 0.665153 33.140245 12.853446
413 3 0.0 23.727723 12.660954 32.346030
414 3 0.0 16.828631 9.954012 3.173354
415 1 0.0 18.558661 32.690220 3.763415
416 1 0.0 11.763949 26.885099 11.844798
417 2 0.0 29.122730 33.035591 18.106759
418 1 0.0 12.032493 4.481507 28.902422
419 1 0.0 19.846164 30.463434 16.668109
420 1 0.0 7.461046 18.645893 29.499392
421 1 0.0 1.757274 8.573023 28.770425
422 1 0.0 1.325441 1.990809 7.414504
423 1 0.0 5.137834 29.653735 28.209586
424 1 0.0 19.413436 29.166901 27.358708
425 1 0.0 8.940359 33.351387 30.016726
426 3 0.0 24.281863 7.997613 3.605484
427 4 0.0 7.338731 17.633069 5.848413
428 1 0.0 19.503014 10.858442 21.115039
429 1 0.0 23.246440 9.426337 9.802280
430 2 0.0 33.221669 32.620463 1.966447
431 4 0.0 4.900440 30.602366 15.218086
432 3 0.0 29.779085 7.441936 24.284605
433 1 0.0 7.366934 33.133909 23.716093
434 3 0.0 23.838095 29.405503 10.023659
435 2 0.0 26.855780 4.387165 4.983241
436 1 0.0 3.221118 5.841864 6.641748
437 3 0.0 10.466915 2.057670 19.125057
438 1 0.0 32.884506 18.726806 8.767671
439 1 0.0 4.727149 17.610542 3.145033
440 1 0.0 1.873974 26.260659 32.344654
441 1 0.0 31.573070 3.895681 31.355621
442 1 0.0 4.144893 33.798389 0.633574
443 1 0.0 23.368394 18.886699 11.477541
444 1 0.0 14.783699 10.547998 3.455730
445 1 0.0 26.312058 6.061094 24.960698
446 1 0.0 2.879326 3.937003 29.861319
447 1 0.0 19.350623 2.036967 30.127144
448 1 0.0 25.225130 28.545080 13.817714
449 2 0.0 17.588001 5.581511 7.078193
450 4 0.0 27.776658 25.674657 1.093081
451 1 0.0 25.992323 10.072875 33.948527
452 1 0.0 27.594968 7.887302 3.627971
453 2 0.0 4.495800 26.288602 32.573957
454 2 0.0 1.530262 18.184732 22.209181
455 2 0.0 15.622507 23.874007 24.328509
456 1 0.0 3.692093 29.303624 9.211987
457 1 0.0 15.063295 4.047912 20.739216
458 1 0.0 12.883509 0.864906 33.694857
459 1 0.0 0.916456 23.949724 30.225238
460 1 0.0 7.231177 6.015661 32.497041
461 4 0.0 6.375564 12.732716 31.958748
462 2 0.0 15.047968 15.775963 4.357132
463 4 0.0 29.542626 29.822275 3.426890
464 1 0.0 7.949796 11.448793 24.203379
465 1 0.0 6.689243 22.703081 18.610762
466 1 0.0 13.962026 30.781756 24.234803
467 1 0.0 1.153916 23.880094 27.372070
468 1 0.0 13.835586 8.256211 5.845219
469 2 0.0 21.548162 14.398855 24.841568
470 1 0.0 2.355470 9.943235 23.123608
471 1 0.0 32.377771 26.842941 31.705587
472 4 0.0 1.786572 25.100197 26.451958
473 2 0.0 15.514159 32.137565 32.993848
474 1 0.0 0.771709 22.335380 17.145830
475 3 0.0 8.424516 7.616821 10.975208
476 3 0.0 13.116863 10.570478 20.390109
477 2 0.0 0.957311 12.199766 17.948954
478 3 0.0 2.668335 23.587876 28.151389
479 1 0.0 30.597292 30.908482 14.160829
480 1 0.0 18.034540 20.624215 32.711034
481 1 0.0 17.749692 7.806871 4.394219
482 2 0.0 20.948346 13.644796 15.452244
483 2 0.0 33.433099 16.604909 11.562135
484 1 0.0 3.177048 16.562928 17.210548
485 1 0.0 11.822269 3.051312 13.175035
486 2 0.0 9.108489 6.653874 21.076017
487 2 0.0 3.978539 30.525281 0.265324
488 3 0.0 22.664606 33.851422 16.906578
489 1 0.0 4.565220 30.957435 10.742102
490 3 0.0 13.493192 13.709079 23.151391
491 1 0.0 2.744061 24.155778 18.029824
492 1 0.0 27.764828 21.640659 15.443357
493 1 0.0 12.641881 15.760947 24.493235
494 3 0.0 15.198988 23.791193 27.706263
495 3 0.0 19.121888 1.994835 3.077016
496 2 0.0 1.701250 25.055653 9.852734
497 1 0.0 1.367578 6.282452 2.934106
498 1 0.0 5.846573 21.617903 13.542354
499 1 0.0 15.995760 21.256403 31.125013
500 1 0.0 6.221632 2.701827 4.008538
501 2 0.0 12.143205 6.516175 32.374447
502 1 0.0 25.133351 30.364318 4.120280
503 2 0.0 29.778724 23.628515 0.901227
504 1 0.0 0.097900 24.309241 20.161264
505 1 0.0 28.874473 29.796513 5.611542
506 1 0.0 17.525667 10.230478 22.959698
507 3 0.0 7.644033 26.306891 29.976733
508 2 0.0 26.716413 11.494040 8.744865
509 2 0.0 21.706357 24.824213 27.969637
510 3 0.0 33.166980 3.113070 25.811670
511 1 0.0 3.054818 5.506750 29.445712
512 2 0.0 2.843204 28.176912 4.358368
513 3 0.0 32.253143 23.553561 18.597435
514 4 0.0 16.577545 19.946235 9.896537
515 1 0.0 4.666302 16.369065 17.324837
516 1 0.0 1.418449 13.635663 19.512899
517 2 0.0 2.122764 7.187894 7.565795
518 3 0.0 27.022684 15.539742 18.437658
519 2 0.0 19.207008 17.836957 0.558059
520 2 0.0 23.283892 9.233956 33.241199
521 1 0.0 8.690973 31.439895 29.205575
522 3 0.0 33.665469 22.381895 4.304509
523 1 0.0 20.421357 5.103833 15.370600
524 1 0.0 7.445670 14.159631 33.691812
525 1 0.0 17.204941 2.810744 11.923575
526 1 0.0 24.427623 12.498651 6.890930
527 1 0.0 0.317161 19.471948 11.193781
528 1 0.0 20.013328 2.980730 9.164938
529 2 0.0 16.643314 11.354965 8.677633
530 1 0.0 19.713317 28.344833 19.335503
531 1 0.0 21.710755 31.385891 6.167450
532 2 0.0 11.320637 0.214823 17.353910
533 3 0.0 6.419581 10.616916 1.002171
534 1 0.0 3.913403 6.566390 14.504254
535 3 0.0 16.718417 22.072082 9.920529
536 2 0.0 33.018823 20.291340 0.003675
537 2 0.0 22.813302 4.638236 10.556098
538 3 0.0 4.881084 30.927309 29.061343
539 3 0.0 31.517506 13.075893 33.483230
540 3 0.0 29.767208 4.096172 31.656597
541 3 0.0 15.524527 16.021558 13.421784
542 1 0.0 33.411562 30.448941 27.943587
543 1 0.0 17.966824 19.731492 13.712682
544 1 0.0 3.808319 19.832466 31.627966
545 1 0.0 0.587773 6.621880 13.650381
546 1 0.0 0.643686 10.684600 12.139640
547 1 0.0 26.451572 11.131479 10.958013
548 1 0.0 19.045459 15.995225 21.984952
549 1 0.0 33.924016 23.153622 10.218462
550 1 0.0 29.203528 18.978399 8.042025
551 1 0.0 18.227560 16.852223 1.696400
552 1 0.0 26.092409 31.351535 27.395817
553 1 0.0 33.912752 8.460798 12.473246
554 1 0.0 4.221357 24.980243 20.218880
555 1 0.0 21.060658 15.185522 2.581869
556 1 0.0 15.141686 28.178854 31.545128
557 2 0.0 11.622457 14.382751 15.457109
558 1 0.0 0.106107 26.204969 32.404877
559 3 0.0 33.398101 24.666040 13.732549
560 1 0.0 17.078322 33.300508 31.540399
561 1 0.0 12.868815 10.435265 14.762818
562 1 0.0 21.335718 20.911394 19.465362
563 2 0.0 17.661688 12.729877 12.352112
564 2 0.0 17.724174 32.529684 17.501809
565 1 0.0 15.284047 24.121860 7.617845
566 4 0.0 4.105881 3.692272 2.155009
567 1 0.0 24.971906 19.998404 13.164712
568 1 0.0 29.132071 23.760579 2.168417
569 1 0.0 25.619607 23.211972 20.323830
570 1 0.0 20.653558 2.156582 18.868075
571 1 0.0 11.389872 2.938026 31.832957
572 1 0.0 9.627612 17.713879 2.638286
573 3 0.0 25.586490 16.565837 6.135240
574 1 0.0 33.109605 29.902152 6.963430
575 1 0.0 26.382093 13.190402 31.953079
576 1 0.0 9.029682 32.544594 11.612357
577 1 0.0 23.597826 14.595873 15.647834
578 1 0.0 24.122081 12.044769 12.384841
579 4 0.0 5.146537 33.907036 13.556976
580 1 0.0 22.420472 24.287740 9.011761
581 1 0.0 18.497265 8.777858 28.913364
582 1 0.0 24.035981 12.701630 24.558364
583 1 0.0 1.710763 9.919189 6.498225
584 1 0.0 4.867136 31.846802 18.167032
585 1 0.0 23.573615 13.114958 0.172294
586 1 0.0 18.663354 31.560922 13.931016
587 1 0.0 31.409608 28.428325 32.969365
588 3 0.0 15.742671 5.408263 0.357582
589 2 0.0 19.523031 29.877940 32.785086
590 1 0.0 0.006309 14.970506 26.943324
591 2 0.0 6.973193 28.122957 14.486115
592 2 0.0 26.570338 20.303879 10.702183
593 1 0.0 8.735250 20.607769 17.544985
594 2 0.0 26.522041 22.794572 27.036399
595 1 0.0 31.947318 12.575358 27.306289
596 2 0.0 23.938482 14.613362 12.174665
597 2 0.0 30.004119 2.687200 22.017838
598 1 0.0 15.631480 1.799687 4.671783
599 1 0.0 15.647353 15.368472 9.557889
600 2 0.0 25.595283 13.026517 2.753026
601 2 0.0 1.778956 24.202924 25.088081
602 4 0.0 24.826945 25.237103 18.357043
603 1 0.0 30.479140 31.418540 11.960262
604 2 0.0 0.081266 4.250417 1.102294
605 1 0.0 29.843883 10.967250 33.366851
606 1 0.0 25.378577 13.973993 0.105356
607 1 0.0 31.655726 24.750947 5.797035
608 1 0.0 14.042072 12.471428 33.790061
609 1 0.0 33.903076 24.567460 16.906950
610 1 0.0 10.337015 1.696525 1.786249
611 1 0.0 27.378764 32.677153 27.075200
612 1 0.0 10.890916 22.966036 18.498224
613 1 0.0 0.198214 0.591214 0.716357
614 1 0.0 19.526478 15.219558 7.381920
615 3 0.0 27.551390 14.064538 29.600338
616 3 0.0 17.373498 19.343520 17.894958
617 1 0.0 9.868398 3.297316 8.892021
618 1 0.0 21.908365 0.340805 14.445264
619 2 0.0 0.869128 0.251472 31.752170
620 1 0.0 19.669621 6.735339 24.581761
621 1 0.0 0.740394 15.267440 22.140466
622 2 0.0 30.874705 11.793525 9.400840
623 1 0.0 14.665850 28.752096 33.356637
624 2 0.0 32.256860 14.436304 4.798857
625 2 0.0 2.103564 12.559736 6.884781
626 2 0.0 0.597824 6.703133 6.556402
627 2 0.0 8.306466 3.922713 23.258072
628 2 0.0 2.729917 0.306034 13.942036
629 1 0.0 16.847692 26.121215 13.347921
630 1 0.0 2.191087 17.772653 14.500024
631 2 0.0 7.860732 30.018658 29.979592
632 1 0.0 25.509439 33.790843 27.279331
633 1 0.0 23.799959 15.660967 23.966009
634 3 0.0 10.034014 23.424783 24.204460
635 1 0.0 25.950533 5.168770 19.067589
636 1 0.0 20.949660 26.387720 8.377800
637 1 0.0 9.605728 16.860633 8.649888
638 1 0.0 14.154223 27.490177 8.107857
639 1 0.0 15.371208 30.483326 31.099946
640 3 0.0 32.266710 29.737587 3.186861
641 1 0.0 24.417288 33.823303 31.761045
642 1 0.0 7.503993 20.072356 14.866211
643 1 0.0 31.129691 21.078835 18.912868
644 1 0.0 17.267143 26.300876 9.564178
645 4 0.0 7.225352 33.186273 8.197236
646 1 0.0 22.472982 16.449388 15.521568
647 1 0.0 15.893730 31.789472 18.134785
648 1 0.0 8.278503 32.796195 15.059742
649 1 0.0 22.941417 28.223434 3.559233
650 3 0.0 14.130378 22.303464 28.438817
651 3 0.0 19.727631 17.525628 19.883128
652 1 0.0 26.926205 10.744028 14.366521
653 1 0.0 25.982518 20.331958 28.261472
654 2 0.0 17.601949 21.551226 27.451354
655 1 0.0 20.685100 4.721550 8.642920
656 1 0.0 11.489456 24.040101 10.585901
657 2 0.0 5.695033 5.025338 1.158418
658 4 0.0 9.695416 31.613761 8.593466
659 2 0.0 8.585509 3.057902 2.600808
660 1 0.0 25.068365 32.353042 13.469215
661 1 0.0 27.920736 22.748119 14.680820
662 4 0.0 16.680235 1.818715 8.021383
663 1 0.0 11.962001 1.370245 12.040523
664 1 0.0 1.355732 11.996911 32.885821
665 1 0.0 4.656366 18.206436 33.009212
666 1 0.0 30.677275 6.370520 28.630726
667 1 0.0 9.760194 4.344371 6.925518
668 1 0.0 30.546031 2.219290 19.173813
669 1 0.0 12.239563 7.294040 7.950662
670 2 0.0 10.824755 3.224203 22.871264
671 1 0.0 32.815261 12.656332 32.010363
672 3 0.0 25.943370 19.575938 33.738522
673 1 0.0 18.431615 6.596962 12.425845
674 1 0.0 24.662531 9.947509 10.829001
675 3 0.0 23.882521 26.389194 17.943181
676 1 0.0 32.521535 22.978589 31.471199
677 2 0.0 20.321325 26.090954 24.348600
678 2 0.0 12.656379 19.838608 5.371730
679 2 0.0 13.693843 2.060451 8.941039
680 1 0.0 5.118397 8.266277 22.213256
681 1 0.0 19.500879 20.499214 31.041821
682 1 0.0 17.889183 26.968322 33.756655
683 3 0.0 18.517200 15.135095 27.952501
684 1 0.0 2.891658 24.999136 29.849297
685 1 0.0 27.360633 12.621170 22.785291
686 1 0.0 30.681829 16.265351 16.117584
687 2 0.0 21.642724 25.275552 22.229199
688 1 0.0 14.514941 0.872735 10.045702
689 1 0.0 17.453111 22.876697 33.880712
690 1 0.0 20.921814 10.269918 5.707146
691 2 0.0 31.292047 7.599909 19.884417
692 1 0.0 13.201653 15.572707 21.129591
693 1 0.0 5.438290 3.308983 29.972260
694 1 0.0 15.983470 14.342662 32.089700
695 1 0.0 19.230089 26.264751 10.249552
696 1 0.0 12.092883 17.173327 23.043602
697 3 0.0 9.587608 30.548707 24.351780
698 1 0.0 17.578904 5.313491 26.847082
699 1 0.0 18.454498 14.646365 30.259131
700 1 0.0 30.493941 14.571657 10.490370
701 4 0.0 25.160309 8.873430 16.075806
702 2 0.0 22.265553 23.333484 11.565582
703 1 0.0 10.388184 25.759161 14.490825
704 2 0.0 17.756855 16.268416 29.124017
705 1 0.0 3.891198 10.531555 16.465777
706 3 0.0 9.702856 24.016463 11.157061
707 1 0.0 13.162679 6.826051 16.109199
708 1 0.0 14.964926 25.559469 27.011118
709 3 0.0 14.785974 29.371623 11.118248
710 2 0.0 26.862943 31.787102 7.930688
711 1 0.0 32.606260 4.161242 9.416240
712 1 0.0 13.734220 18.761888 10.001110
713 1 0.0 14.715351 10.223478 23.038738
714 2 0.0 8.871860 15.606252 4.876625
715 1 0.0 23.087324 32.664494 24.478864
716 3 0.0 20.995780 32.314535 1.931139
717 2 0.0 3.233866 24.937772 8.949010
718 3 0.0 10.133319 12.002655 2.402756
719 2 0.0 16.261305 6.040573 31.827877
720 3 0.0 30.506081 4.494437 17.325765
721 3 0.0 10.444810 30.547384 28.556536
722 3 0.0 18.457875 24.607220 17.592587
723 1 0.0 33.011596 18.249698 5.416433
724 1 0.0 20.417936 8.908132 7.077721
725 2 0.0 22.506836 16.228596 33.527178
726 4 0.0 19.231709 18.355991 23.071873
727 1 0.0 25.221765 15.809094 11.522117
728 1 0.0 28.504933 10.784520 11.806434
729 4 0.0 9.234789 31.826091 16.152135
730 1 0.0 5.478483 7.952476 2.057851
731 1 0.0 9.271685 11.656762 25.401075
732 1 0.0 24.021536 31.630426 4.642822
733 1 0.0 25.864967 9.489970 20.157312
734 2 0.0 20.646041 19.147505 30.418276
735 1 0.0 1.544825 0.703098 23.384485
736 3 0.0 24.501904 23.113516 8.965777
737 2 0.0 32.687268 4.294210 5.321619
738 2 0.0 14.281759 27.489084 15.654632
739 1 0.0 7.933979 23.581163 29.453178
740 1 0.0 30.188434 8.573406 0.037398
741 1 0.0 8.563423 2.654884 33.397752
742 1 0.0 11.355816 4.721658 16.920925
743 1 0.0 0.263152 9.474228 4.911627
744 2 0.0 2.179794 16.466309 27.672099
745 2 0.0 19.495040 23.012869 20.932377
746 2 0.0 7.954789 1.676737 4.127993
747 2 0.0 29.223559 33.629544 12.908380
748 1 0.0 24.522883 17.747750 14.664535
749 4 0.0 32.940145 15.919176 9.575161
750 1 0.0 8.515009 28.384898 6.674073
751 1 0.0 26.207342 2.666623 18.839671
752 1 0.0 17.862778 20.829030 14.638115
753 4 0.0 30.806191 15.375053 8.502581
754 1 0.0 28.215012 29.931583 2.714828
755 1 0.0 17.531098 12.561457 32.702831
756 1 0.0 4.511341 29.636210 7.875363
757 2 0.0 4.620045 19.855040 7.742918
758 3 0.0 14.840652 19.647151 5.224597
759 3 0.0 9.391734 7.730390 18.115144
760 2 0.0 7.586653 11.152460 2.309916
761 1 0.0 15.715367 21.517365 11.798950
762 1 0.0 7.011728 27.670026 30.812181
763 1 0.0 1.533843 15.789237 2.138084
764 2 0.0 23.890935 12.254093 17.484440
765 1 0.0 7.837308 16.837195 28.676433
766 1 0.0 10.845267 1.879817 26.867462
767 1 0.0 5.889045 27.823975 23.633586
768 1 0.0 23.875601 33.597385 33.190484
769 2 0.0 15.514196 29.269509 12.937412
770 1 0.0 31.554145 28.307748 16.014752
771 1 0.0 4.327346 11.160479 12.048371
772 1 0.0 18.994461 11.415741 25.241127
773 2 0.0 16.945059 28.338533 24.653373
774 2 0.0 0.922635 24.498823 13.305702
775 1 0.0 20.319500 22.620502 17.493013
776 1 0.0 15.909692 10.831908 23.341826
777 1 0.0 33.818748 19.518964 19.169233
778 1 0.0 15.864447 20.710082 17.640931
779 2 0.0 16.262330 14.856908 30.487185
780 1 0.0 14.377387 3.885082 1.963927
781 1 0.0 27.129640 27.005773 5.117682
782 1 0.0 32.342762 8.448035 2.747479
783 1 0.0 31.325257 0.503626 22.858795
784 1 0.0 13.331901 8.886921 1.702922
785 1 0.0 21.530797 28.956380 28.151951
786 1 0.0 32.650319 27.628333 27.368807
787 3 0.0 29.947855 27.039673 30.446243
788 1 0.0 8.441820 4.799167 3.110069
789 1 0.0 11.686489 7.387105 25.637169
790 1 0.0 2.681579 16.973835 20.979205
791 1 0.0 33.010968 30.146547 15.897186
792 2 0.0 7.630925 5.948996 14.889154
793 1 0.0 2.260000 29.418186 13.565547
794 1 0.0 2.234675 8.986906 4.466664
795 1 0.0 27.281528 29.980571 3.813251
796 3 0.0 11.635691 31.178952 2.588485
797 1 0.0 33.483012 26.892112 5.043727
798 3 0.0 18.542868 4.631855 5.809652
799 1 0.0 10.737673 8.758556 18.547418
800 4 0.0 29.652068 20.610177 23.913798
801 1 0.0 26.194646 22.300255 33.232405
802 1 0.0 8.096591 22.151598 32.656161
803 2 0.0 27.688667 31.922829 33.924330
804 1 0.0 5.367481 22.554287 21.139425
805 1 0.0 15.482685 6.436911 16.603082
806 2 0.0 23.134349 27.713543 23.237936
807 2 0.0 21.675442 9.963784 7.377270
808 1 0.0 15.387996 25.308970 31.473892
809 1 0.0 17.882388 29.853554 10.422669
810 1 0.0 28.342725 26.468693 7.040141
811 1 0.0 5.599379 32.188371 30.429315
812 2 0.0 17.687552 14.270207 32.650481
813 2 0.0 17.160830 6.637426 9.821959
814 1 0.0 30.474895 31.125573 33.359377
815 1 0.0 1.673869 10.176344 3.827877
816 1 0.0 8.848910 27.577744 12.589815
817 2 0.0 13.272232 9.126258 11.135579
818 1 0.0 26.430985 18.101306 19.040165
819 1 0.0 6.483484 7.537136 9.879832
820 1 0.0 21.856751 32.952961 14.257394
821 1 0.0 20.220513 1.022112 24.953132
822 1 0.0 20.947841 15.341009 32.782750
823 2 0.0 14.455682 7.037471 26.979539
824 1 0.0 0.407977 11.122451 28.308612
825 1 0.0 21.322591 2.748223 2.007538
826 3 0.0 20.246966 12.547431 19.066319
827 4 0.0 10.996616 16.144125 22.433877
828 3 0.0 7.041868 13.601766 6.293430
829 1 0.0 12.088790 24.979544 12.090918
830 1 0.0 29.926657 13.840455 21.258967
831 2 0.0 18.851610 23.278834 15.944608
832 2 0.0 8.257072 16.677429 21.822083
833 3 0.0 17.673473 23.991146 0.542886
834 1 0.0 14.927965 6.357158 24.725352
835 1 0.0 4.502150 12.585951 7.688848
836 3 0.0 18.437489 12.400095 7.940848
837 2 0.0 32.786551 29.028657 24.362129
838 1 0.0 5.422463 8.551489 16.093128
839 1 0.0 6.271770 15.071520 9.134516
840 1 0.0 3.222708 31.873228 4.008756
841 1 0.0 0.409830 10.051384 18.440547
842 2 0.0 21.151639 5.270405 13.538920
843 1 0.0 11.644337 13.224167 19.487641
844 1 0.0 9.625982 11.567423 0.428485
845 2 0.0 0.655048 13.071206 2.542674
846 2 0.0 11.689424 26.012208 28.239429
847 1 0.0 11.396205 30.483305 22.955539
848 1 0.0 23.636742 4.760850 0.123153
849 1 0.0 7.527430 22.038087 23.969349
850 1 0.0 19.428594 30.598440 5.757682
851 2 0.0 5.932333 7.275706 17.656966
852 2 0.0 6.155989 15.446590 31.203785
853 1 0.0 5.262355 22.465306 6.152054
854 2 0.0 7.262337 3.553040 20.344548
855 2 0.0 21.032394 26.988197 13.797606
856 1 0.0 5.901306 12.467844 5.566070
857 1 0.0 2.746724 8.642647 12.552833
858 2 0.0 2.709196 25.847242 23.975531
859 1 0.0 25.109332 7.867642 23.079713
860 1 0.0 32.393092 27.327517 1.071083
861 1 0.0 29.651806 8.062134 8.959677
862 1 0.0 23.311740 31.960614 9.973956
863 2 0.0 22.781378 18.281959 16.749399
864 3 0.0 29.037267 18.169283 31.626239
865 4 0.0 33.721463 31.376078 1.784207
866 2 0.0 4.064869 1.419261 4.245954
867 1 0.0 31.702253 9.740840 11.269230
868 1 0.0 10.712815 9.490004 2.696451
869 1 0.0 31.765525 6.498134 20.508827
870 2 0.0 23.901842 25.352701 12.055217
871 1 0.0 24.682401 17.401947 8.941344
872 1 0.0 5.345842 14.214392 23.706284
873 1 0.0 3.913455 1.126939 31.246087
874 1 0.0 23.626155 17.222930 22.356671
875 3 0.0 20.755595 8.800813 30.550420
876 3 0.0 21.905732 0.611949 28.199960
877 1 0.0 5.693889 29.147123 5.428287
878 1 0.0 13.288486 25.745420 12.395007
879 1 0.0 28.145357 15.693855 27.790615
880 1 0.0 5.011375 33.688907 7.575912
881 3 0.0 20.953250 2.663458 32.748906
882 2 0.0 9.860792 8.801330 11.908483
883 3 0.0 23.132250 17.194343 13.289491
884 1 0.0 14.341344 15.818319 11.956305
885 1 0.0 19.430776 4.599049 18.644449
886 1 0.0 26.259704 7.821541 25.571540
887 2 0.0 32.359562 15.363394 28.874673
888 1 0.0 17.837967 4.581607 20.839000
889 1 0.0 10.585514 33.534529 18.156091
890 3 0.0 6.056807 29.614736 14.108915
891 2 0.0 30.576753 10.266257 19.899872
892 1 0.0 18.287560 1.212949 8.721626
893 2 0.0 31.455961 13.991939 7.999095
894 4 0.0 22.957644 27.641906 0.368726
895 1 0.0 10.821557 10.979750 13.103290
896 1 0.0 21.239349 4.625052 30.030767
897 1 0.0 17.437912 0.486479 21.352822
898 1 0.0 29.976582 22.078311 15.745456
899 3 0.0 26.429532 27.084108 0.003821
900 3 0.0 6.106703 20.712840 3.507618
901 1 0.0 21.501268 27.014979 17.671532
902 1 0.0 20.155049 7.368870 27.730771
903 1 0.0 32.174401 7.119068 18.696589
904 1 0.0 7.447356 27.504930 9.803419
905 3 0.0 22.162064 12.823693 12.458052
906 2 0.0 29.095687 23.780924 18.510585
907 1 0.0 7.828859 25.799245 15.993521
908 1 0.0 7.890997 16.189860 12.877282
909 4 0.0 23.072638 9.337703 14.882649
910 2 0.0 10.291649 22.952811 27.781693
911 2 0.0 24.997299 4.305244 32.727777
912 2 0.0 30.753446 9.189233 3.616446
913 3 0.0 19.731688 0.123857 31.789328
914 2 0.0 31.097655 33.383618 30.531429
915 2 0.0 26.620107 18.611883 29.757228
916 1 0.0 14.401291 19.064726 23.730111
917 1 0.0 15.648581 12.402346 23.525330
918 1 0.0 26.420870 10.851374 0.344078
919 1 0.0 3.847957 3.822899 12.592292
920 1 0.0 29.417204 15.349990 32.346177
921 1 0.0 27.362529 1.843620 14.594616
922 1 0.0 4.670480 22.809552 32.185653
923 2 0.0 23.488735 24.088481 24.670686
924 1 0.0 19.691495 6.355283 18.226905
925 1 0.0 9.945379 20.114901 0.030575
926 1 0.0 31.670764 22.005788 30.150634
927 1 0.0 13.940831 28.994025 15.737825
928 1 0.0 32.419569 9.299455 14.618191
929 1 0.0 8.713506 30.179898 14.167263
930 1 0.0 15.463563 12.106298 5.087772
931 2 0.0 28.263287 5.702660 5.944550
932 1 0.0 5.979225 32.912185 8.690524
933 1 0.0 21.928857 15.407681 20.091834
934 1 0.0 11.472563 21.611845 30.817938
935 2 0.0 24.894362 29.259621 8.622595
936 1 0.0 10.407927 0.686228 28.739299
937 2 0.0 8.372035 0.037603 31.397562
938 2 0.0 31.825620 2.158059 14.926042
939 2 0.0 3.797839 1.429504 18.286144
940 1 0.0 31.139822 1.553122 32.710947
941 1 0.0 10.509533 10.761891 4.277649
942 1 0.0 25.463216 12.321607 28.142030
943 1 0.0 10.696388 8.102614 1.409412
944 1 0.0 33.647861 3.987850 28.124698
945 1 0.0 10.483395 24.420542 30.633960
946 1 0.0 22.596819 23.186199 29.605469
947 1 0.0 12.180551 13.154563 32.603394
948 3 0.0 4.654524 16.981978 25.537662
949 1 0.0 26.495842 5.898614 5.491586
950 1 0.0 15.109077 17.147575 4.168745
951 1 0.0 21.474218 18.488244 26.516409
952 3 0.0 31.492439 18.823744 0.213061
953 1 0.0 12.370191 4.359348 24.895984
954 3 0.0 19.789388 9.990300 2.333497
955 1 0.0 10.872458 27.437944 26.094340
956 1 0.0 28.052541 31.646933 30.674625
957 2 0.0 0.951893 26.778039 6.117649
958 3 0.0 21.369852 10.052327 25.541276
959 4 0.0 14.682936 17.658773 1.673167
960 2 0.0 0.053936 18.460962 22.644823
961 2 0.0 24.551890 10.686094 21.589403
962 1 0.0 0.256684 7.256610 25.503342
963 2 0.0 21.515111 11.051230 33.512779
964 1 0.0 4.255521 26.095285 31.177303
965 2 0.0 3.368267 3.668914 10.288765
966 1 0.0 24.753727 22.547009 0.676494
967 2 0.0 6.043904 20.395511 6.068920
968 1 0.0 5.324000 24.439004 6.070469
969 1 0.0 23.888199 1.523525 28.483743
970 1 0.0 26.026048 5.601142 14.629461
971 2 0.0 20.246338 28.332137 10.171558
972 1 0.0 27.379783 6.695080 2.864153
973 2 0.0 15.841958 1.932151 14.977737
974 3 0.0 26.554287 12.286296 14.299001
975 1 0.0 16.802906 24.336164 10.446674
976 1 0.0 26.158149 25.446948 18.137609
977 4 0.0 27.233065 11.848299 28.022328
978 1 0.0 25.122941 0.824043 4.854068
979 3 0.0 19.478477 19.373021 24.769513
980 1 0.0 21.530577 31.415610 10.609452
981 1 0.0 20.124857 18.848021 6.069565
982 4 0.0 20.421380 21.130531 25.573327
983 2 0.0 11.851803 2.548515 7.818794
984 1 0.0 25.982241 32.486974 9.339665
985 1 0.0 6.847881 16.369058 17.510498
986 3 0.0 1.505105 16.100082 23.104435
987 2 0.0 13.190185 12.970157 30.400125
988 2 0.0 22.383942 22.098968 15.201481
989 2 0.0 4.450054 27.971156 6.178377
990 2 0.0 26.183573 28.392719 24.447894
991 1 0.0 5.568712 11.901305 10.015048
992 3 0.0 8.600773 3.204041 15.476077
993 1 0.0 9.636293 7.415002 8.752492
994 3 0.0 1.467160 29.117265 15.100029
995 1 0.0 24.881657 10.406521 0.610031
996 1 0.0 20.313252 31.146640 1.830641
997 1 0.0 27.189551 21.386280 24.108285
998 4 0.0 32.332791 1.382140 29.398839
999 2 0.0 17.741820 15.282307 1.481527
1000 3 0.0 4.769830 26.074425 25.492026
1001 1 0.0 2.181009 31.323197 1.684480
1002 1 0.0 26.806189 32.022807 5.774508
1003 1 0.0 1.545080 4.876199 17.116185
1004 1 0.0 17.417271 17.609220 19.809584
1005 1 0.0 6.055258 22.968116 29.449706
1006 3 0.0 23.746053 11.620055 22.163453
1007 3 0.0 20.956112 4.086694 26.424637
1008 1 0.0 20.536795 6.607317 16.624527
1009 4 0.0 13.897026 23.971439 11.116788
1010 2 0.0 10.616542 11.696948 17.374730
1011 2 0.0 5.473705 0.811928 8.614109
1012 2 0.0 22.132421 5.543889 2.879084
1013 3 0.0 18.832219 23.297076 3.846649
1014 1 0.0 1.581183 20.933090 22.521057
1015 3 0.0 28.303150 31.810388 5.007376
1016 1 0.0 28.991137 17.889964 16.114697
1017 1 0.0 10.944250 27.041872 9.473684
1018 4 0.0 28.163669 2.752144 2.241437
1019 2 0.0 33.884692 14.610304 5.468125
1020 1 0.0 28.577327 11.047986 32.813657
1021 2 0.0 10.300771 31.029976 14.405307
1022 1 0.0 18.074698 9.115244 0.824892
1023 1 0.0 21.257121 9.255518 28.968980
1024 1 0.0 23.411028 0.412090 0.576082
1025 1 0.0 22.358298 7.115410 33.609718
1026 3 0.0 24.119186 8.434233 18.349971
1027 1 0.0 1.796627 4.068935 22.193825
1028 2 0.0 33.357412 12.980181 14.340531
1029 1 0.0 28.987658 19.451544 12.845569
1030 3 0.0 16.200788 26.413689 27.126147
1031 1 0.0 4.403090 14.512136 0.696151
1032 1 0.0 4.576778 5.865362 22.693092
1033 2 0.0 32.937090 5.258017 21.850998
1034 2 0.0 7.935118 25.146407 23.313935
1035 2 0.0 26.356518 31.104741 10.434219
1036 2 0.0 9.527664 15.186604 32.463746
1037 2 0.0 8.663107 28.231778 32.734873
1038 2 0.0 19.418992 8.501505 17.290036
1039 1 0.0 32.039892 1.994740 5.357453
1040 1 0.0 3.068840 4.879554 17.699438
1041 1 0.0 9.794547 16.638695 6.705848
1042 1 0.0 20.896865 22.908840 15.749271
1043 1 0.0 4.449420 5.429140 29.529171
1044 1 0.0 14.085783 12.289763 6.846713
1045 1 0.0 13.243980 3.729286 14.011469
1046 1 0.0 10.643006 25.702067 1.355834
1047 1 0.0 21.043693 22.094356 22.593357
1048 1 0.0 25.718162 12.548366 4.361383
1049 1 0.0 6.157614 10.719437 20.779215
1050 1 0.0 26.820886 9.915457 26.596388
1051 3 0.0 10.047375 16.717760 3.474940
1052 1 0.0 8.654929 9.212590 31.205782
1053 1 0.0 7.493129 8.479807 9.003072
1054 3 0.0 17.193845 33.807578 25.518492
1055 2 0.0 3.548682 6.408643 10.857360
1056 2 0.0 29.976570 29.289358 15.529663
1057 1 0.0 18.713500 23.958450 7.781320
1058 3 0.0 24.594801 30.136506 12.907024
1059 1 0.0 2.708135 19.732073 14.114963
1060 3 0.0 1.783277 3.382334 23.826649
1061 4 0.0 9.084382 12.566979 21.345963
1062 2 0.0 9.719676 7.051684 33.563532
1063 2 0.0 33.778418 24.416648 18.930736
1064 2 0.0 4.538304 4.273314 8.830630
1065 1 0.0 5.597088 25.052159 26.975175
1066 2 0.0 9.301561 9.892446 14.329981
1067 1 0.0 29.381868 28.719331 7.067812
1068 3 0.0 22.767443 8.629232 30.846334
1069 1 0.0 4.146738 17.705683 29.365864
1070 1 0.0 27.528406 24.563932 8.392734
1071 1 0.0 30.621080 12.835756 15.798203
1072 2 0.0 17.058998 21.402877 33.666531
1073 1 0.0 0.985779 1.282650 9.880366
1074 2 0.0 5.733300 16.583223 0.600122
1075 1 0.0 22.823063 30.786562 5.144987
1076 1 0.0 30.906048 20.834519 26.360242
1077 1 0.0 30.370489 16.973233 12.654681
1078 1 0.0 25.626361 2.950144 0.528433
1079 1 0.0 2.510260 25.635471 3.514118
1080 1 0.0 25.681537 21.814823 17.489024
1081 2 0.0 22.731074 5.140047 5.486904
1082 3 0.0 18.171521 32.108307 10.203947
1083 2 0.0 15.867721 4.408828 7.963697
1084 1 0.0 17.705929 31.575469 28.121939
1085 1 0.0 16.841501 9.115186 23.643856
1086 1 0.0 13.988285 5.274949 30.960971
1087 1 0.0 9.834200 23.681433 33.731181
1088 1 0.0 3.233167 17.432291 19.115320
1089 2 0.0 27.567965 23.538341 18.075548
1090 1 0.0 2.518259 17.249257 16.216361
1091 1 0.0 15.189881 15.422610 17.289555
1092 2 0.0 0.271402 8.286694 31.676860
1093 1 0.0 12.542669 1.122990 31.250103
1094 2 0.0 11.091417 4.855340 19.750197
1095 1 0.0 17.883001 11.987581 3.134325
1096 1 0.0 21.086342 23.088088 29.515369
1097 3 0.0 7.812220 28.067867 18.260417
1098 1 0.0 5.659208 8.325741 8.915696
1099 1 0.0 5.507452 2.451509 22.135238
1100 3 0.0 0.197683 0.164621 18.525608
1101 4 0.0 1.040839 5.585429 11.260334
1102 2 0.0 28.826449 3.075816 4.329926
1103 1 0.0 23.768557 33.687737 23.004333
1104 2 0.0 17.041128 10.914615 5.068382
1105 1 0.0 19.926619 13.101066 16.706164
1106 1 0.0 2.130403 7.771189 33.612963
1107 1 0.0 32.773041 0.905740 19.925367
1108 1 0.0 33.637135 17.763676 24.948608
1109 2 0.0 33.932950 14.610845 11.064410
1110 1 0.0 3.264332 21.785431 0.771911
1111 1 0.0 29.453643 1.354300 3.133577
1112 2 0.0 26.777215 1.689329 27.436716
1113 2 0.0 31.230306 33.044391 16.924458
1114 2 0.0 14.967565 9.288833 19.284031
1115 1 0.0 14.722656 0.008345 20.716136
1116 1 0.0 28.813857 5.153987 13.798553
1117 4 0.0 29.120649 16.902467 29.392277
1118 2 0.0 19.241273 12.376453 28.826059
1119 1 0.0 21.675412 13.978887 33.919263
1120 1 0.0 18.936783 23.081256 32.888456
1121 1 0.0 21.087427 18.876774 17.309921
1122 3 0.0 16.461812 22.792169 21.994026
1123 2 0.0 3.269154 30.645113 29.705609
1124 1 0.0 30.152107 25.943230 10.135592
1125 3 0.0 29.313087 22.564172 12.670230
1126 3 0.0 17.960459 18.077063 30.814539
1127 2 0.0 4.862645 19.361600 4.338756
1128 1 0.0 19.456810 9.890329 24.290107
1129 1 0.0 14.830790 27.854723 19.385035
1130 2 0.0 11.774256 13.748276 3.578693
1131 1 0.0 5.623935 2.126150 8.217248
1132 1 0.0 30.153488 12.341822 5.558307
1133 4 0.0 15.360776 10.182306 5.751972
1134 1 0.0 13.723638 30.703092 33.105637
1135 1 0.0 24.900279 16.739227 18.054016
1136 4 0.0 25.809869 3.487291 29.979341
1137 2 0.0 19.477279 28.612408 0.812889
1138 1 0.0 10.343548 19.159752 28.890640
1139 1 0.0 5.028984 33.576546 23.933636
1140 1 0.0 7.366598 8.765333 11.855141
1141 1 0.0 23.743722 1.911283 12.099722
1142 1 0.0 15.669876 10.058320 15.804906
1143 2 0.0 23.535254 22.735133 10.498923
1144 2 0.0 1.479208 18.464022 23.752183
1145 1 0.0 10.090602 12.030677 6.697106
1146 4 0.0 7.848792 27.461000 5.530165
1147 1 0.0 8.728212 21.895839 15.171775
1148 3 0.0 17.756433 16.496951 6.631011
1149 2 0.0 28.999574 13.961076 31.299079
1150 2 0.0 27.730522 19.201268 15.612770
1151 1 0.0 9.995640 0.921873 16.430739
1152 2 0.0 33.095878 25.994070 0.020163
1153 2 0.0 27.974142 22.185080 20.974079
1154 3 0.0 24.731607 30.590760 22.462403
1155 1 0.0 29.735438 0.182098 22.364311
1156 1 0.0 28.728133 5.891424 31.639953
1157 1 0.0 5.799484 6.889889 23.264196
1158 2 0.0 30.883704 8.076828 24.997565
1159 1 0.0 9.604872 5.152866 33.552411
1160 1 0.0 5.940636 8.493496 33.801935
1161 1 0.0 24.699668 16.130643 4.070905
1162 1 0.0 12.720494 5.626685 21.473148
1163 1 0.0 31.649774 5.057588 33.846561
1164 2 0.0 3.025152 9.157531 26.831548
1165 2 0.0 7.948513 7.515403 20.465812
1166 1 0.0 31.027018 23.398520 13.652575
1167 2 0.0 25.259908 28.949249 16.365400
1168 1 0.0 22.882653 15.167459 6.119850
1169 1 0.0 10.421032 20.078698 16.253421
1170 1 0.0 12.750437 21.270143 18.107529
1171 1 0.0 21.968744 0.444965 2.773446
1172 1 0.0 10.938158 18.395713 26.415701
1173 1 0.0 6.172015 12.393000 8.551436
1174 1 0.0 14.646116 32.327736 5.614981
1175 1 0.0 18.769938 8.120783 2.054898
1176 3 0.0 26.669416 33.646857 20.274767
1177 4 0.0 21.217795 28.926056 32.366249
1178 1 0.0 24.010889 24.937888 22.824284
1179 1 0.0 17.464561 26.592603 28.124018
1180 1 0.0 28.842623 20.545891 10.474806
1181 2 0.0 1.923586 12.798635 28.726189
1182 1 0.0 5.260390 8.033394 26.510479
1183 1 0.0 26.809484 19.553034 32.319866
1184 1 0.0 3.650522 9.529141 8.683267
1185 2 0.0 28.424857 4.247939 33.670725
1186 1 0.0 6.281374 25.309480 15.047462
1187 1 0.0 14.981456 1.918536 28.754568
1188 1 0.0 19.908036 13.152064 12.625977
1189 3 0.0 14.172762 26.301814 31.777317
1190 3 0.0 8.420417 7.648737 16.786085
1191 3 0.0 10.537385 22.327004 4.318081
1192 1 0.0 6.441485 29.487851 1.320620
1193 1 0.0 14.132383 8.338506 29.057197
1194 1 0.0 16.165972 3.494311 8.933968
1195 3 0.0 7.084780 8.655901 32.783688
1196 1 0.0 33.014049 8.041094 24.147381
1197 1 0.0 33.417074 12.354498 20.479343
1198 2 0.0 6.022401 5.801313 12.693301
1199 1 0.0 2.990013 22.523928 23.898724
1200 1 0.0 29.894590 0.135772 23.724114
1201 1 0.0 24.554813 21.590237 9.051575
1202 1 0.0 1.643958 32.026958 18.656413
1203 1 0.0 29.681780 8.634029 21.703964
1204 1 0.0 8.749024 22.918462 22.740851
1205 1 0.0 13.425475 17.687757 23.253357
1206 1 0.0 16.344739 15.759791 5.917089
1207 1 0.0 6.615433 10.439759 28.913329
1208 4 0.0 29.266229 27.059348 33.055396
1209 1 0.0 18.937308 13.093721 15.342803
1210 1 0.0 11.056869 9.753091 24.661740
1211 2 0.0 18.496827 26.713068 11.756542
1212 3 0.0 4.819694 2.809415 15.890675
1213 2 0.0 17.071450 18.277303 33.536305
1214 1 0.0 13.989015 25.173070 4.707478
1215 1 0.0 2.106868 7.728911 18.608378
1216 2 0.0 32.368560 16.902976 10.626553
1217 1 0.0 8.653917 22.407638 29.536336
1218 2 0.0 20.380125 31.469193 33.718066
1219 1 0.0 33.990043 33.725457 27.202878
1220 1 0.0 7.554226 0.660407 17.285313
1221 1 0.0 16.344884 30.945885 28.730155
1222 2 0.0 17.221355 1.713185 22.122472
1223 1 0.0 0.344847 13.396260 21.569171
1224 2 0.0 19.646258 29.767462 14.759595
1225 2 0.0 18.775306 10.142680 16.599103
1226 3 0.0 17.026040 1.453188 10.930715
1227 1 0.0 23.483453 6.880815 6.100375
1228 1 0.0 20.138826 14.535876 28.538346
1229 1 0.0 24.131955 22.947980 16.516739
1230 2 0.0 30.980740 21.380743 32.368058
1231 3 0.0 31.083725 17.212995 7.277200
1232 3 0.0 8.456869 15.070896 17.118619
1233 2 0.0 14.806563 4.906732 27.776666
1234 2 0.0 1.228911 0.783789 6.146655
1235 1 0.0 20.050341 10.287993 22.459120
1236 1 0.0 0.694047 29.479061 26.327011
1237 1 0.0 16.622386 21.868994 8.388022
1238 3 0.0 6.368037 15.062832 28.102011
1239 2 0.0 26.529680 19.826114 4.659289
1240 1 0.0 19.755502 8.158950 25.970467
1241 2 0.0 29.821983 20.314869 27.022623
1242 3 0.0 2.107372 7.540789 15.959597
1243 1 0.0 30.904022 22.419923 0.392467
1244 1 0.0 12.060336 23.892262 13.347838
1245 2 0.0 15.035532 22.815463 21.901059
1246 1 0.0 2.277296 18.099354 6.695229
1247 1 0.0 7.390359 23.972961 6.843113
1248 1 0.0 15.559600 14.598775 27.273548
1249 1 0.0 31.659225 14.784744 11.536705
1250 3 0.0 14.133077 30.138152 6.124353
1251 1 0.0 24.189520 6.956801 24.087402
1252 1 0.0 18.268621 11.042299 17.816529
1253 2 0.0 18.819738 11.570343 19.364734
1254 1 0.0 9.665851 32.529556 33.117852
1255 1 0.0 19.950985 9.414797 33.005219
1256 4 0.0 7.260257 5.493508 1.813124
1257 3 0.0 18.830392 8.647946 6.774319
1258 2 0.0 4.226195 25.943449 12.892403
1259 1 0.0 6.935179 30.404060 31.111185
1260 2 0.0 4.115149 30.823491 31.098621
1261 1 0.0 0.734209 19.048949 27.425640
1262 2 0.0 12.815970 13.871575 13.709511
1263 1 0.0 6.924643 11.428156 25.305336
1264 1 0.0 14.368420 31.975031 16.646648
1265 1 0.0 18.026332 18.089331 15.602509
1266 4 0.0 31.338420 22.639096 20.932981
1267 1 0.0 21.298718 4.390518 22.675847
1268 1 0.0 7.221428 27.168587 25.720769
1269 1 0.0 17.021912 20.099878 1.505956
1270 1 0.0 5.812803 12.189968 0.063021
1271 1 0.0 12.268448 2.582163 25.272067
1272 3 0.0 27.949901 0.472162 25.158327
1273 3 0.0 22.565930 8.149856 7.531575
1274 1 0.0 12.435571 33.935488 14.858501
1275 2 0.0 1.973281 13.088383 14.090918
1276 1 0.0 21.722492 11.146449 9.167545
1277 1 0.0 24.965102 28.689049 21.648086
1278 1 0.0 17.217269 3.695854 7.431172
1279 1 0.0 32.170277 28.031557 7.432852
1280 1 0.0 27.390276 30.037664 23.297404
1281 1 0.0 28.960487 15.067047 6.154994
1282 1 0.0 14.408146 14.339127 3.790084
1283 1 0.0 8.042499 21.954187 12.518769
1284 1 0.0 15.796186 5.669333 15.154021
1285 1 0.0 10.429165 5.786500 10.342875
1286 1 0.0 15.665710 33.905658 5.753739
1287 1 0.0 12.054996 32.392377 23.434888
1288 2 0.0 32.582672 10.916362 32.246603
1289 1 0.0 4.472491 30.132659 13.745784
1290 1 0.0 31.393037 4.823373 23.285534
1291 1 0.0 15.822897 32.559915 29.198054
1292 2 0.0 2.479623 10.563385 5.314248
1293 1 0.0 15.738879 31.574207 7.790446
1294 1 0.0 25.037214 19.787057 19.277849
1295 3 0.0 21.890150 26.257829 23.433475
1296 1 0.0 16.163875 5.146421 28.947111
1297 2 0.0 3.467194 19.831639 3.812648
1298 1 0.0 1.639540 29.097251 33.802331
1299 1 0.0 27.436532 23.237533 4.887762
1300 1 0.0 11.061217 5.223838 2.386709
1301 1 0.0 22.129055 29.240759 18.487845
1302 4 0.0 22.979799 14.086371 4.473359
1303 2 0.0 21.844001 29.620367 20.511230
1304 3 0.0 19.016960 21.158169 7.317378
1305 4 0.0 31.427299 16.898090 24.586103
1306 1 0.0 29.941614 4.716654 23.591172
1307 1 0.0 33.548053 31.427417 13.958024
1308 1 0.0 22.864990 11.551237 23.428436
1309 1 0.0 1.523799 10.051143 8.450488
1310 1 0.0 23.288356 3.945735 16.854568
1311 2 0.0 25.758801 30.262692 23.357065
1312 1 0.0 1.508532 25.727960 2.297049
1313 1 0.0 2.902405 2.710275 7.238358
1314 2 0.0 12.629210 31.114417 16.739343
1315 2 0.0 13.360903 11.055696 2.652671
1316 1 0.0 13.985784 6.635813 31.424679
1317 1 0.0 7.671150 25.269589 12.815538
1318 1 0.0 26.782679 33.979383 3.672281
1319 2 0.0 29.769323 5.815537 26.695866
1320 3 0.0 28.545057 1.284690 23.012855
1321 1 0.0 19.167114 21.348674 21.308092
1322 1 0.0 3.584111 13.374655 6.856593
1323 1 0.0 4.064284 12.499113 13.504834
1324 2 0.0 19.061179 13.542203 4.073476
1325 2 0.0 7.571456 30.610715 12.509375
1326 1 0.0 23.725492 18.414416 9.290255
1327 1 0.0 18.538156 4.373795 2.356105
1328 2 0.0 30.090450 10.484812 1.138936
1329 1 0.0 15.148922 28.458515 4.919688
1330 1 0.0 28.947092 1.613435 0.087349
1331 1 0.0 23.061445 28.149735 18.372265
1332 1 0.0 23.129739 22.772448 6.911802
1333 1 0.0 20.219334 1.597649 12.153679
1334 1 0.0 3.959480 17.196302 0.573609
1335 3 0.0 0.149281 11.296449 4.611095
1336 1 0.0 17.016833 5.975717 2.825157
1337 1 0.0 1.668860 23.595865 3.723782
1338 2 0.0 11.216743 30.361986 16.512224
1339 3 0.0 21.515135 24.729209 29.425933
1340 2 0.0 11.438774 14.957898 11.875537
1341 1 0.0 8.057510 30.823385 26.730359
1342 2 0.0 24.592383 30.818197 32.994346
1343 1 0.0 20.037339 32.529652 24.169026
1344 2 0.0 17.999367 29.542188 21.280837
1345 2 0.0 1.005480 33.752435 15.088279
1346 1 0.0 1.742645 20.359789 16.274673
1347 1 0.0 24.737113 19.610524 17.346126
1348 1 0.0 29.251850 8.638889 23.563985
1349 1 0.0 33.320697 6.925687 4.588359
1350 1 0.0 15.400300 13.553467 6.753539
1351 1 0.0 17.200697 16.651472 33.777034
1352 1 0.0 26.701564 17.665749 11.784279
1353 2 0.0 3.767473 30.062960 26.020084
1354 1 0.0 27.840255 18.752547 2.990321
1355 1 0.0 24.886206 18.976076 22.342063
1356 2 0.0 18.625341 9.516295 30.665506
1357 1 0.0 26.496060 26.469501 25.222098
1358 1 0.0 29.566188 27.538157 24.867347
1359 1 0.0 12.340169 12.743269 29.193344
1360 4 0.0 5.068999 18.775667 17.277140
1361 2 0.0 33.534833 27.054631 24.055998
1362 1 0.0 6.725002 10.364664 14.599467
1363 1 0.0 22.479079 31.925702 13.292684
1364 1 0.0 17.065667 9.534256 7.637976
1365 1 0.0 28.925181 16.825701 26.859887
1366 1 0.0 33.521075 25.281031 3.623312
1367 3 0.0 19.883431 14.451987 1.344812
1368 1 0.0 20.914152 7.551719 33.682970
1369 2 0.0 26.520037 6.966049 16.158667
1370 1 0.0 15.389054 23.952755 32.582064
1371 1 0.0 16.817169 15.119889 26.661142
1372 1 0.0 33.225285 10.751971 10.840392
1373 1 0.0 11.704104 14.155361 27.213354
1374 2 0.0 21.994964 29.178605 1.414535
1375 2 0.0 26.802880 9.972762 3.398412
1376 1 0.0 6.811058 24.161013 22.057398
1377 1 0.0 31.667511 12.894628 2.392858
1378 2 0.0 6.692213 12.577854 10.534076
1379 1 0.0 33.034469 4.251492 14.015965
1380 4 0.0 27.191402 9.646414 16.420879
1381 1 0.0 26.419722 7.851077 33.202358
1382 1 0.0 33.440757 4.240023 20.761282
1383 3 0.0 9.985715 30.853891 17.589425
1384 1 0.0 28.436163 18.401357 19.510651
1385 1 0.0 1.597290 24.944157 7.176853
1386 1 0.0 11.366779 5.680486 13.203388
1387 1 0.0 15.621372 4.226368 16.944775
1388 1 0.0 33.704739 24.171606 24.939087
1389 1 0.0 2.337884 32.466884 28.632082
1390 1 0.0 4.756455 20.535572 33.687849
1391 1 0.0 14.136525 5.580190 1.142745
1392 1 0.0 31.265997 3.303482 33.057293
1393 2 0.0 17.617800 31.775695 12.622113
1394 1 0.0 13.988642 5.073547 10.812144
1395 2 0.0 4.313992 25.171314 15.620524
1396 3 0.0 19.242839 20.721594 24.054678
1397 1 0.0 30.490234 2.897413 10.265458
1398 2 0.0 25.460320 23.598527 24.885226
1399 2 0.0 14.115266 27.082999 9.703751
1400 1 0.0 6.047285 14.743165 16.904434
1401 4 0.0 18.663135 7.501150 26.462050
1402 1 0.0 18.137851 28.800408 2.835355
1403 4 0.0 6.208518 17.376780 14.308082
1404 1 0.0 13.881955 32.660993 19.763404
1405 2 0.0 15.375870 22.591258 0.197370
1406 4 0.0 24.054724 7.564672 28.390864
1407 3 0.0 15.068971 13.253142 28.393518
1408 1 0.0 28.201979 15.748176 3.978831
1409 1 0.0 4.143639 33.200722 11.367224
1410 1 0.0 33.005255 10.258609 20.303337
1411 1 0.0 25.521067 25.008631 28.489930
1412 1 0.0 31.511795 26.165554 12.910887
1413 1 0.0 4.555266 6.084809 12.809715
1414 1 0.0 8.710378 11.985840 19.282270
1415 1 0.0 5.518501 4.179481 25.766130
1416 2 0.0 0.260008 27.787718 32.006283
1417 1 0.0 8.727753 12.460664 5.241478
1418 4 0.0 27.708550 16.668170 32.316796
1419 1 0.0 3.355597 26.165344 9.501979
1420 1 0.0 23.511545 5.343977 3.804324
1421 1 0.0 27.143908 31.683625 16.037287
1422 2 0.0 10.191599 19.328957 33.730595
1423 4 0.0 31.344852 29.304842 29.087257
1424 1 0.0 30.784810 14.404452 2.466898
1425 3 0.0 1.313077 4.504643 20.127352
1426 1 0.0 22.087492 5.629680 22.116488
1427 1 0.0 0.674572 10.374502 2.500833
1428 1 0.0 11.903632 10.369748 13.804252
1429 1 0.0 15.232591 10.604495 11.653034
1430 1 0.0 30.558950 10.591062 21.334208
1431 1 0.0 30.827397 28.095437 5.097206
1432 2 0.0 3.474526 1.558761 14.710488
1433 1 0.0 12.989338 19.115259 20.503161
1434 2 0.0 27.168680 28.195783 33.250606
1435 4 0.0 16.225081 6.463154 27.504147
1436 1 0.0 1.397950 19.731845 6.782722
1437 1 0.0 24.467929 21.211878 30.466604
1438 3 0.0 18.700612 23.997218 21.866351
1439 1 0.0 10.310623 5.933281 8.015375
1440 1 0.0 29.206333 17.452038 22.543111
1441 2 0.0 24.808164 18.089578 2.054827
1442 1 0.0 30.520855 32.624116 1.810332
1443 3 0.0 6.414952 18.122848 22.083835
1444 1 0.0 3.847997 23.926765 1.096208
1445 2 0.0 20.991628 19.802296 8.306025
1446 3 0.0 26.518329 13.318684 27.207097
1447 1 0.0 3.262128 21.668376 27.272313
1448 2 0.0 25.329210 33.562358 10.707492
1449 1 0.0 21.302130 13.990664 22.651025
1450 1 0.0 7.560126 13.919088 31.578003
1451 4 0.0 10.010670 11.106321 9.736543
1452 3 0.0 1.501107 26.457742 14.182200
1453 1 0.0 8.989225 31.390321 30.966125
1454 1 0.0 15.112612 27.283381 23.298048
1455 4 0.0 5.853609 20.146336 28.802157
1456 1 0.0 4.870249 19.224563 22.165187
1457 1 0.0 4.258031 30.639495 32.681637
1458 1 0.0 33.119199 4.627458 23.103431
1459 1 0.0 27.268500 29.146113 14.776231
1460 1 0.0 14.142327 16.433033 23.681707
1461 1 0.0 8.611738 10.807546 22.883769
1462 3 0.0 30.469392 28.170645 28.834829
1463 3 0.0 8.082847 27.568727 0.096035
1464 2 0.0 19.058849 28.361657 24.024015
1465 1 0.0 12.683121 31.906678 26.877720
1466 2 0.0 11.348066 0.357282 6.955141
1467 4 0.0 18.430103 32.627375 5.877185
1468 1 0.0 29.140381 13.606651 27.115762
1469 1 0.0 5.976941 29.123061 24.754132
1470 1 0.0 13.806724 31.894726 30.502615
1471 1 0.0 7.562883 20.032780 1.727684
1472 1 0.0 15.180777 5.767857 10.838972
1473 2 0.0 24.466321 15.213787 28.044100
1474 1 0.0 14.724436 31.098581 28.598693
1475 1 0.0 28.279791 31.290517 0.529768
1476 1 0.0 20.883388 32.047519 9.031657
1477 1 0.0 28.479984 12.185951 14.958247
1478 3 0.0 2.999999 19.024582 26.369064
1479 4 0.0 13.711042 29.197419 20.476126
1480 2 0.0 22.542160 13.494330 1.357024
1481 3 0.0 0.799396 6.154803 22.435496
1482 3 0.0 32.533256 4.703243 7.327589
1483 3 0.0 8.003851 28.957544 21.067085
1484 2 0.0 33.896500 6.093993 2.673103
1485 1 0.0 7.562077 3.194552 24.337115
1486 1 0.0 0.952655 9.063159 9.319044
1487 1 0.0 31.003928 25.351635 25.976653
1488 2 0.0 9.215836 19.189585 23.471991
1489 4 0.0 13.018544 20.307475 15.314441
1490 1 0.0 5.530717 28.867176 29.895197
1491 4 0.0 14.997370 20.330030 28.659608
1492 1 0.0 12.295704 10.105417 16.848710
1493 1 0.0 13.366676 24.601927 21.142151
1494 2 0.0 21.105713 11.867388 29.451910
1495 2 0.0 7.768540 7.938590 7.409574
1496 1 0.0 27.413210 27.419926 30.959936
1497 1 0.0 28.680856 16.957827 2.395793
1498 2 0.0 33.878089 13.268560 5.835782
1499 4 0.0 11.816787 32.825105 12.392275
1500 1 0.0 6.981373 11.443065 11.505843
